p cnf 721 1561
e 1 2 3 4 5 6 7 8 9 10 11 12 13 14 15 16 17 18 19 20 21 22 23 24 25 26 27 28 29 30 31 32 33 34 35 36 37 38 39 40 41 42 43 44 45 46 47 48 49 50 51 52 53 54 55 56 57 58 59 60 61 62 63 64 65 66 67 68 69 70 71 72 73 74 75 76 77 78 79 80 81 82 83 84 85 86 87 88 89 90 91 92 93 94 95 96 0
a 97 98 99 100 0
e 101 102 103 104 105 106 107 108 109 110 111 112 113 114 115 116 117 118 119 120 121 122 123 124 125 126 127 128 129 130 131 132 133 134 135 136 137 138 139 140 141 142 143 144 145 146 147 148 149 150 151 152 153 154 155 156 157 158 159 160 161 162 163 164 165 166 167 168 169 170 171 172 173 174 175 176 177 178 179 180 181 182 183 184 185 186 187 188 189 190 191 192 193 194 195 196 197 198 199 200 201 202 203 204 205 206 207 208 209 210 211 212 213 214 215 216 217 218 219 220 221 222 223 224 225 226 227 228 229 230 231 232 233 234 0
a 235 236 237 238 0
e 239 240 241 242 243 244 245 246 247 248 249 250 251 252 253 254 255 256 257 258 259 260 261 262 263 264 265 266 267 268 269 270 271 272 273 274 275 276 277 278 279 280 281 282 283 284 285 286 287 288 289 290 291 292 293 294 295 296 297 298 299 300 301 302 303 304 305 306 307 308 309 310 311 312 313 314 315 316 317 318 319 320 321 322 323 324 325 326 327 328 329 330 331 332 333 334 335 336 337 338 339 340 341 342 343 344 345 346 347 348 349 350 351 352 353 354 355 356 357 358 359 360 361 362 363 364 365 366 367 368 369 370 371 372 0
a 373 374 375 376 0
e 377 378 379 380 381 382 383 384 385 386 387 388 389 390 391 392 393 394 395 396 397 398 399 400 401 402 403 404 405 406 407 408 409 410 411 412 413 414 415 416 417 418 419 420 421 422 423 424 425 426 427 428 429 430 431 432 433 434 435 436 437 438 439 440 441 442 443 444 445 446 447 448 449 450 451 452 453 454 455 456 457 458 459 460 461 462 463 464 465 466 467 468 469 470 471 472 473 474 475 476 477 478 479 480 481 482 483 484 485 486 487 488 489 490 491 492 493 494 495 496 497 498 499 500 501 502 503 504 505 506 507 508 509 510 0
a 511 512 513 514 0
e 515 516 517 518 519 520 521 522 523 524 525 526 527 528 529 530 531 532 533 534 535 536 537 538 539 540 541 542 543 544 545 546 547 548 549 550 551 552 553 554 555 556 557 558 559 560 561 562 563 564 565 566 567 568 569 570 571 572 573 574 575 576 577 578 579 580 581 582 583 584 585 586 587 588 589 590 591 592 593 594 595 596 597 598 599 600 601 602 603 604 605 606 607 608 609 610 611 612 613 614 615 616 617 618 619 620 621 622 623 624 625 626 627 628 629 630 631 632 633 634 635 636 637 638 639 640 641 642 643 644 645 646 647 648 649 650 651 652 653 654 655 656 657 658 659 660 661 662 663 664 665 666 667 668 669 670 671 672 673 674 675 676 677 678 679 680 681 682 683 684 685 686 687 688 689 690 691 692 693 694 695 696 697 698 699 700 701 702 703 704 705 706 707 708 709 710 711 712 713 714 715 716 717 718 719 720 721 0
75 0
-35 0
-9 0
-50 0
-4 0
211 0
280 0
-377 0
-215 0
-43 0
-214 0
-580 0
213 0
-369 0
-92 0
-509 0
-695 0
415 0
-578 0
-503 0
-701 0
144 0
525 0
-366 0
67 0
-363 0
-703 0
-704 0
-706 0
623 0
276 0
-250 0
137 0
-53 0
-161 0
-19 0
-440 0
-297 0
-76 0
-16 0
345 0
347 0
-508 0
-639 0
621 0
-157 0
552 0
-579 0
72 0
489 0
-91 0
-500 0
-135 0
-48 0
-62 0
557 0
-45 0
-719 0
-491 0
73 0
344 0
69 0
71 0
350 0
416 0
111 0
648 0
-690 0
-114 0
-42 0
-231 0
-515 0
77 0
-295 0
277 0
-645 0
-101 0
-506 0
-3 0
-25 0
-44 0
79 0
85 0
-224 0
481 0
-364 0
-233 0
-27 0
-159 0
-365 0
-504 0
-120 0
622 0
414 0
-693 0
-709 0
283 0
275 0
-423 0
-571 0
-13 0
-715 0
487 0
591 0
-129 0
-26 0
-699 0
-14 0
-17 0
-21 0
488 0
418 0
29 0
-561 0
-2 0
-33 0
-526 0
-90 0
-15 0
-28 0
-86 0
83 0
-225 0
146 0
342 0
-166 0
249 0
-576 0
-59 0
-232 0
417 0
315 0
-647 0
-285 0
-628 0
-691 0
70 0
556 0
1 0
-685 0
177 0
-64 0
-148 0
-642 0
-711 0
-712 0
-505 0
625 0
-368 0
-434 0
-132 0
-573 0
-95 0
485 0
454 0
-179 0
110 0
-37 0
-58 0
80 0
279 0
-61 0
-60 0
-55 0
-574 0
-304 0
-370 0
-126 0
-299 0
-501 0
482 0
-227 0
278 0
-164 0
480 0
40 0
138 0
178 0
-562 0
-300 0
-298 0
-32 0
-721 0
343 0
-686 0
-438 0
-490 0
-442 0
559 0
-582 0
-640 0
-31 0
413 0
-24 0
-708 0
68 0
-362 0
-57 0
-46 0
618 0
-698 0
-707 0
142 0
-112 0
-7 0
-22 0
-228 0
619 0
145 0
212 0
346 0
348 0
484 0
386 0
-692 0
-716 0
82 0
351 0
-388 0
39 0
524 0
-239 0
-696 0
-87 0
-162 0
-705 0
626 0
-437 0
-371 0
-41 0
-646 0
387 0
74 0
-94 0
141 0
281 0
-433 0
422 0
-441 0
-147 0
-697 0
-286 0
-229 0
-165 0
-168 0
206 0
483 0
-455 0
-306 0
-63 0
-687 0
205 0
-296 0
-641 0
-160 0
-49 0
-88 0
-23 0
-18 0
-713 0
207 0
486 0
554 0
560 0
316 0
-56 0
-700 0
-51 0
-593 0
-54 0
-572 0
-36 0
-689 0
-702 0
-302 0
-444 0
-435 0
-367 0
-52 0
140 0
143 0
-638 0
-158 0
248 0
-230 0
-629 0
209 0
210 0
592 0
-123 0
-47 0
81 0
284 0
-502 0
-34 0
551 0
30 0
-710 0
419 0
453 0
-424 0
-352 0
-11 0
555 0
-353 0
-439 0
-12 0
139 0
282 0
553 0
558 0
-301 0
-38 0
627 0
-718 0
-720 0
78 0
620 0
-303 0
-226 0
-20 0
-694 0
-643 0
-575 0
-10 0
420 0
-317 0
421 0
-644 0
-89 0
208 0
624 0
-163 0
-436 0
-117 0
66 0
-714 0
349 0
-507 0
-8 0
-717 0
-688 0
84 0
-93 0
-5 0
-6 0
-577 0
204 0
-65 0
-167 96 0
-234 167 0
-305 234 0
-372 305 0
-443 372 0
-510 443 0
-581 510 0
-181 252 0
-184 255 0
-187 258 0
-190 261 0
-193 264 0
-196 267 0
-199 270 0
-202 273 0
-252 319 0
-255 322 0
-258 325 0
-261 328 0
-264 331 0
-267 334 0
-270 337 0
-273 340 0
-319 390 0
-322 393 0
-325 396 0
-328 399 0
-331 402 0
-334 405 0
-337 408 0
-340 411 0
-390 457 0
-393 460 0
-396 463 0
-399 466 0
-402 469 0
-405 472 0
-408 475 0
-411 478 0
-457 528 0
-460 531 0
-463 534 0
-466 537 0
-469 540 0
-472 543 0
-475 546 0
-478 549 0
-528 595 0
-531 598 0
-534 601 0
-537 604 0
-540 607 0
-543 610 0
-546 613 0
-549 616 0
-115 182 0
-118 185 0
-121 188 0
-124 191 0
-127 194 0
-130 197 0
-133 200 0
-136 203 0
-182 253 0
-185 256 0
-188 259 0
-191 262 0
-194 265 0
-197 268 0
-200 271 0
-203 274 0
-253 320 0
-256 323 0
-259 326 0
-262 329 0
-265 332 0
-268 335 0
-271 338 0
-274 341 0
-320 391 0
-323 394 0
-326 397 0
-329 400 0
-332 403 0
-335 406 0
-338 409 0
-341 412 0
-391 458 0
-394 461 0
-397 464 0
-400 467 0
-403 470 0
-406 473 0
-409 476 0
-412 479 0
-458 529 0
-461 532 0
-464 535 0
-467 538 0
-470 541 0
-473 544 0
-476 547 0
-479 550 0
-529 596 0
-532 599 0
-535 602 0
-538 605 0
-541 608 0
-544 611 0
-547 614 0
-550 617 0
-181 -182 0
-184 -185 0
-187 -188 0
-190 -191 0
-193 -194 0
-196 -197 0
-199 -200 0
-202 -203 0
-252 -253 0
-255 -256 0
-258 -259 0
-261 -262 0
-264 -265 0
-267 -268 0
-270 -271 0
-273 -274 0
-319 -320 0
-322 -323 0
-325 -326 0
-328 -329 0
-331 -332 0
-334 -335 0
-337 -338 0
-340 -341 0
-390 -391 0
-393 -394 0
-396 -397 0
-399 -400 0
-402 -403 0
-405 -406 0
-408 -409 0
-411 -412 0
-457 -458 0
-460 -461 0
-463 -464 0
-466 -467 0
-469 -470 0
-472 -473 0
-475 -476 0
-478 -479 0
-528 -529 0
-531 -532 0
-534 -535 0
-537 -538 0
-540 -541 0
-543 -544 0
-546 -547 0
-549 -550 0
-595 -596 0
-598 -599 0
-601 -602 0
-604 -605 0
-607 -608 0
-610 -611 0
-613 -614 0
-616 -617 0
-113 115 0
113 -115 0
-116 118 0
116 -118 0
-119 121 0
119 -121 0
-122 124 0
122 -124 0
-125 127 0
125 -127 0
-128 130 0
128 -130 0
-131 133 0
131 -133 0
-134 136 0
134 -136 0
-180 181 182 0
180 -181 0
180 -182 0
-183 184 185 0
183 -184 0
183 -185 0
-186 187 188 0
186 -187 0
186 -188 0
-189 190 191 0
189 -190 0
189 -191 0
-192 193 194 0
192 -193 0
192 -194 0
-195 196 197 0
195 -196 0
195 -197 0
-198 199 200 0
198 -199 0
198 -200 0
-201 202 203 0
201 -202 0
201 -203 0
-251 252 253 0
251 -252 0
251 -253 0
-254 255 256 0
254 -255 0
254 -256 0
-257 258 259 0
257 -258 0
257 -259 0
-260 261 262 0
260 -261 0
260 -262 0
-263 264 265 0
263 -264 0
263 -265 0
-266 267 268 0
266 -267 0
266 -268 0
-269 270 271 0
269 -270 0
269 -271 0
-272 273 274 0
272 -273 0
272 -274 0
-318 319 320 0
318 -319 0
318 -320 0
-321 322 323 0
321 -322 0
321 -323 0
-324 325 326 0
324 -325 0
324 -326 0
-327 328 329 0
327 -328 0
327 -329 0
-330 331 332 0
330 -331 0
330 -332 0
-333 334 335 0
333 -334 0
333 -335 0
-336 337 338 0
336 -337 0
336 -338 0
-339 340 341 0
339 -340 0
339 -341 0
-389 390 391 0
389 -390 0
389 -391 0
-392 393 394 0
392 -393 0
392 -394 0
-395 396 397 0
395 -396 0
395 -397 0
-398 399 400 0
398 -399 0
398 -400 0
-401 402 403 0
401 -402 0
401 -403 0
-404 405 406 0
404 -405 0
404 -406 0
-407 408 409 0
407 -408 0
407 -409 0
-410 411 412 0
410 -411 0
410 -412 0
-456 457 458 0
456 -457 0
456 -458 0
-459 460 461 0
459 -460 0
459 -461 0
-462 463 464 0
462 -463 0
462 -464 0
-465 466 467 0
465 -466 0
465 -467 0
-468 469 470 0
468 -469 0
468 -470 0
-471 472 473 0
471 -472 0
471 -473 0
-474 475 476 0
474 -475 0
474 -476 0
-477 478 479 0
477 -478 0
477 -479 0
-527 528 529 0
527 -528 0
527 -529 0
-530 531 532 0
530 -531 0
530 -532 0
-533 534 535 0
533 -534 0
533 -535 0
-536 537 538 0
536 -537 0
536 -538 0
-539 540 541 0
539 -540 0
539 -541 0
-542 543 544 0
542 -543 0
542 -544 0
-545 546 547 0
545 -546 0
545 -547 0
-548 549 550 0
548 -549 0
548 -550 0
-594 595 596 0
594 -595 0
594 -596 0
-597 598 599 0
597 -598 0
597 -599 0
-600 601 602 0
600 -601 0
600 -602 0
-603 604 605 0
603 -604 0
603 -605 0
-606 607 608 0
606 -607 0
606 -608 0
-609 610 611 0
609 -610 0
609 -611 0
-612 613 614 0
612 -613 0
612 -614 0
-615 616 617 0
615 -616 0
615 -617 0
167 -181 0
167 -184 0
167 -187 0
167 -190 0
167 -193 0
167 -196 0
167 -199 0
167 -202 0
234 181 -252 0
234 184 -255 0
234 187 -258 0
234 190 -261 0
234 193 -264 0
234 196 -267 0
234 199 -270 0
234 202 -273 0
305 252 -319 0
305 255 -322 0
305 258 -325 0
305 261 -328 0
305 264 -331 0
305 267 -334 0
305 270 -337 0
305 273 -340 0
372 319 -390 0
372 322 -393 0
372 325 -396 0
372 328 -399 0
372 331 -402 0
372 334 -405 0
372 337 -408 0
372 340 -411 0
443 390 -457 0
443 393 -460 0
443 396 -463 0
443 399 -466 0
443 402 -469 0
443 405 -472 0
443 408 -475 0
443 411 -478 0
510 457 -528 0
510 460 -531 0
510 463 -534 0
510 466 -537 0
510 469 -540 0
510 472 -543 0
510 475 -546 0
510 478 -549 0
581 528 -595 0
581 531 -598 0
581 534 -601 0
581 537 -604 0
581 540 -607 0
581 543 -610 0
581 546 -613 0
581 549 -616 0
96 -115 0
96 -118 0
96 -121 0
96 -124 0
96 -127 0
96 -130 0
96 -133 0
96 -136 0
167 115 -182 0
167 118 -185 0
167 121 -188 0
167 124 -191 0
167 127 -194 0
167 130 -197 0
167 133 -200 0
167 136 -203 0
234 182 -253 0
234 185 -256 0
234 188 -259 0
234 191 -262 0
234 194 -265 0
234 197 -268 0
234 200 -271 0
234 203 -274 0
305 253 -320 0
305 256 -323 0
305 259 -326 0
305 262 -329 0
305 265 -332 0
305 268 -335 0
305 271 -338 0
305 274 -341 0
372 320 -391 0
372 323 -394 0
372 326 -397 0
372 329 -400 0
372 332 -403 0
372 335 -406 0
372 338 -409 0
372 341 -412 0
443 391 -458 0
443 394 -461 0
443 397 -464 0
443 400 -467 0
443 403 -470 0
443 406 -473 0
443 409 -476 0
443 412 -479 0
510 458 -529 0
510 461 -532 0
510 464 -535 0
510 467 -538 0
510 470 -541 0
510 473 -544 0
510 476 -547 0
510 479 -550 0
581 529 -596 0
581 532 -599 0
581 535 -602 0
581 538 -605 0
581 541 -608 0
581 544 -611 0
581 547 -614 0
581 550 -617 0
169 -181 0
115 -182 0
170 -184 0
118 -185 0
171 -187 0
121 -188 0
172 -190 0
124 -191 0
173 -193 0
127 -194 0
174 -196 0
130 -197 0
175 -199 0
133 -200 0
176 -202 0
136 -203 0
307 252 -319 0
253 -320 0
308 255 -322 0
256 -323 0
309 258 -325 0
259 -326 0
310 261 -328 0
262 -329 0
311 264 -331 0
265 -332 0
312 267 -334 0
268 -335 0
313 270 -337 0
271 -338 0
314 273 -340 0
274 -341 0
445 390 -457 0
391 -458 0
446 393 -460 0
394 -461 0
447 396 -463 0
397 -464 0
448 399 -466 0
400 -467 0
449 402 -469 0
403 -470 0
450 405 -472 0
406 -473 0
451 408 -475 0
409 -476 0
452 411 -478 0
412 -479 0
583 528 -595 0
529 -596 0
584 531 -598 0
532 -599 0
585 534 -601 0
535 -602 0
586 537 -604 0
538 -605 0
587 540 -607 0
541 -608 0
588 543 -610 0
544 -611 0
589 546 -613 0
547 -614 0
590 549 -616 0
550 -617 0
102 -115 0
103 -118 0
104 -121 0
105 -124 0
106 -127 0
107 -130 0
108 -133 0
109 -136 0
240 182 -253 0
181 -252 0
241 185 -256 0
184 -255 0
242 188 -259 0
187 -258 0
243 191 -262 0
190 -261 0
244 194 -265 0
193 -264 0
245 197 -268 0
196 -267 0
246 200 -271 0
199 -270 0
247 203 -274 0
202 -273 0
378 320 -391 0
319 -390 0
379 323 -394 0
322 -393 0
380 326 -397 0
325 -396 0
381 329 -400 0
328 -399 0
382 332 -403 0
331 -402 0
383 335 -406 0
334 -405 0
384 338 -409 0
337 -408 0
385 341 -412 0
340 -411 0
516 458 -529 0
457 -528 0
517 461 -532 0
460 -531 0
518 464 -535 0
463 -534 0
519 467 -538 0
466 -537 0
520 470 -541 0
469 -540 0
521 473 -544 0
472 -543 0
522 476 -547 0
475 -546 0
523 479 -550 0
478 -549 0
649 -610 -613 0
-649 610 0
-649 613 0
650 -613 -595 0
-650 613 0
-650 595 0
651 -613 -610 -595 0
-651 613 0
-651 610 0
-651 595 0
652 -610 -595 0
-652 610 0
-652 595 0
653 -613 -595 -616 0
-653 613 0
-653 595 0
-653 616 0
654 -613 -616 -601 0
-654 613 0
-654 616 0
-654 601 0
655 -616 -595 -601 0
-655 616 0
-655 595 0
-655 601 0
656 -613 -595 -601 0
-656 613 0
-656 595 0
-656 601 0
657 -616 -601 0
-657 616 0
-657 601 0
658 -616 -610 0
-658 616 0
-658 610 0
659 -601 -610 0
-659 601 0
-659 610 0
660 -616 -601 -610 0
-660 616 0
-660 601 0
-660 610 0
661 -610 -604 -595 0
-661 610 0
-661 604 0
-661 595 0
662 -610 -595 -598 0
-662 610 0
-662 595 0
-662 598 0
663 -595 -604 -598 0
-663 595 0
-663 604 0
-663 598 0
664 -610 -604 -598 0
-664 610 0
-664 604 0
-664 598 0
665 -595 -598 -601 0
-665 595 0
-665 598 0
-665 601 0
666 -595 -601 -607 0
-666 595 0
-666 601 0
-666 607 0
667 -601 -598 -607 0
-667 601 0
-667 598 0
-667 607 0
668 -595 -598 -607 0
-668 595 0
-668 598 0
-668 607 0
669 -601 -607 -610 0
-669 601 0
-669 607 0
-669 610 0
670 -601 -610 -604 0
-670 601 0
-670 610 0
-670 604 0
671 -610 -607 -604 0
-671 610 0
-671 607 0
-671 604 0
672 -601 -607 -604 0
-672 601 0
-672 607 0
-672 604 0
673 -604 -598 0
-673 604 0
-673 598 0
674 -604 -598 -613 0
-674 604 0
-674 598 0
-674 613 0
675 -598 -613 0
-675 598 0
-675 613 0
676 -604 -613 0
-676 604 0
-676 613 0
677 -598 -613 -607 0
-677 598 0
-677 613 0
-677 607 0
678 -598 -607 -616 0
-678 598 0
-678 607 0
-678 616 0
679 -607 -613 -616 0
-679 607 0
-679 613 0
-679 616 0
680 -598 -613 -616 0
-680 598 0
-680 613 0
-680 616 0
681 -607 -616 -604 0
-681 607 0
-681 616 0
-681 604 0
682 -607 -604 0
-682 607 0
-682 604 0
683 -604 -616 0
-683 604 0
-683 616 0
684 -607 -616 0
-684 607 0
-684 616 0
649 650 651 652 653 654 655 656 657 658 659 660 661 662 663 664 665 666 667 668 669 670 671 672 673 674 675 676 677 678 679 680 681 682 683 684 0
-614 -611 -596 0
-614 -596 -617 0
-614 -617 -602 0
-617 -596 -602 0
-614 -596 -602 0
-617 -602 -611 0
-611 -605 -596 0
-611 -596 -599 0
-596 -605 -599 0
-611 -605 -599 0
-596 -599 -602 0
-596 -602 -608 0
-602 -599 -608 0
-596 -599 -608 0
-602 -608 -611 0
-602 -611 -605 0
-611 -608 -605 0
-602 -608 -605 0
-605 -599 -614 0
-599 -614 -608 0
-599 -608 -617 0
-608 -614 -617 0
-599 -614 -617 0
-608 -617 -605 0
-169 216 0
169 -216 0
-170 217 0
-216 217 0
170 -217 216 0
-170 -216 0
-171 218 0
-217 218 0
171 -218 217 0
-171 -217 0
-172 219 0
-218 219 0
172 -219 218 0
-172 -218 0
-173 220 0
-219 220 0
173 -220 219 0
-173 -219 0
-174 221 0
-220 221 0
174 -221 220 0
-174 -220 0
-175 222 0
-221 222 0
175 -222 221 0
-175 -221 0
-176 223 0
-222 223 0
176 -223 222 0
-176 -222 0
-307 354 0
307 -354 0
-308 355 0
-354 355 0
308 -355 354 0
-308 -354 0
-309 356 0
-355 356 0
309 -356 355 0
-309 -355 0
-310 357 0
-356 357 0
310 -357 356 0
-310 -356 0
-311 358 0
-357 358 0
311 -358 357 0
-311 -357 0
-312 359 0
-358 359 0
312 -359 358 0
-312 -358 0
-313 360 0
-359 360 0
313 -360 359 0
-313 -359 0
-314 361 0
-360 361 0
314 -361 360 0
-314 -360 0
-445 492 0
445 -492 0
-446 493 0
-492 493 0
446 -493 492 0
-446 -492 0
-447 494 0
-493 494 0
447 -494 493 0
-447 -493 0
-448 495 0
-494 495 0
448 -495 494 0
-448 -494 0
-449 496 0
-495 496 0
449 -496 495 0
-449 -495 0
-450 497 0
-496 497 0
450 -497 496 0
-450 -496 0
-451 498 0
-497 498 0
451 -498 497 0
-451 -497 0
-452 499 0
-498 499 0
452 -499 498 0
-452 -498 0
-583 630 0
583 -630 0
-584 631 0
-630 631 0
584 -631 630 0
-584 -630 0
-585 632 0
-631 632 0
585 -632 631 0
-585 -631 0
-586 633 0
-632 633 0
586 -633 632 0
-586 -632 0
-587 634 0
-633 634 0
587 -634 633 0
-587 -633 0
-588 635 0
-634 635 0
588 -635 634 0
-588 -634 0
-589 636 0
-635 636 0
589 -636 635 0
-589 -635 0
-590 637 0
-636 637 0
590 -637 636 0
-590 -636 0
-102 149 0
102 -149 0
-103 150 0
-149 150 0
103 -150 149 0
-103 -149 0
-104 151 0
-150 151 0
104 -151 150 0
-104 -150 0
-105 152 0
-151 152 0
105 -152 151 0
-105 -151 0
-106 153 0
-152 153 0
106 -153 152 0
-106 -152 0
-107 154 0
-153 154 0
107 -154 153 0
-107 -153 0
-108 155 0
-154 155 0
108 -155 154 0
-108 -154 0
-109 156 0
-155 156 0
109 -156 155 0
-109 -155 0
-240 287 0
240 -287 0
-241 288 0
-287 288 0
241 -288 287 0
-241 -287 0
-242 289 0
-288 289 0
242 -289 288 0
-242 -288 0
-243 290 0
-289 290 0
243 -290 289 0
-243 -289 0
-244 291 0
-290 291 0
244 -291 290 0
-244 -290 0
-245 292 0
-291 292 0
245 -292 291 0
-245 -291 0
-246 293 0
-292 293 0
246 -293 292 0
-246 -292 0
-247 294 0
-293 294 0
247 -294 293 0
-247 -293 0
-378 425 0
378 -425 0
-379 426 0
-425 426 0
379 -426 425 0
-379 -425 0
-380 427 0
-426 427 0
380 -427 426 0
-380 -426 0
-381 428 0
-427 428 0
381 -428 427 0
-381 -427 0
-382 429 0
-428 429 0
382 -429 428 0
-382 -428 0
-383 430 0
-429 430 0
383 -430 429 0
-383 -429 0
-384 431 0
-430 431 0
384 -431 430 0
-384 -430 0
-385 432 0
-431 432 0
385 -432 431 0
-385 -431 0
-516 563 0
516 -563 0
-517 564 0
-563 564 0
517 -564 563 0
-517 -563 0
-518 565 0
-564 565 0
518 -565 564 0
-518 -564 0
-519 566 0
-565 566 0
519 -566 565 0
-519 -565 0
-520 567 0
-566 567 0
520 -567 566 0
-520 -566 0
-521 568 0
-567 568 0
521 -568 567 0
-521 -567 0
-522 569 0
-568 569 0
522 -569 568 0
-522 -568 0
-523 570 0
-569 570 0
523 -570 569 0
-523 -569 0
-167 223 0
-305 361 0
-443 499 0
-581 637 0
-96 156 0
-234 294 0
-372 432 0
-510 570 0
-169 181 0
-169 -113 0
-169 167 0
-170 184 0
-170 -116 0
-170 167 0
-171 187 0
-171 -119 0
-171 167 0
-172 190 0
-172 -122 0
-172 167 0
-173 193 0
-173 -125 0
-173 167 0
-174 196 0
-174 -128 0
-174 167 0
-175 199 0
-175 -131 0
-175 167 0
-176 202 0
-176 -134 0
-176 167 0
-307 319 0
-307 -251 0
-307 305 0
-308 322 0
-308 -254 0
-308 305 0
-309 325 0
-309 -257 0
-309 305 0
-310 328 0
-310 -260 0
-310 305 0
-311 331 0
-311 -263 0
-311 305 0
-312 334 0
-312 -266 0
-312 305 0
-313 337 0
-313 -269 0
-313 305 0
-314 340 0
-314 -272 0
-314 305 0
-445 457 0
-445 -389 0
-445 443 0
-446 460 0
-446 -392 0
-446 443 0
-447 463 0
-447 -395 0
-447 443 0
-448 466 0
-448 -398 0
-448 443 0
-449 469 0
-449 -401 0
-449 443 0
-450 472 0
-450 -404 0
-450 443 0
-451 475 0
-451 -407 0
-451 443 0
-452 478 0
-452 -410 0
-452 443 0
-583 595 0
-583 -527 0
-583 581 0
-584 598 0
-584 -530 0
-584 581 0
-585 601 0
-585 -533 0
-585 581 0
-586 604 0
-586 -536 0
-586 581 0
-587 607 0
-587 -539 0
-587 581 0
-588 610 0
-588 -542 0
-588 581 0
-589 613 0
-589 -545 0
-589 581 0
-590 616 0
-590 -548 0
-590 581 0
-102 115 0
-102 96 0
-103 118 0
-103 96 0
-104 121 0
-104 96 0
-105 124 0
-105 96 0
-106 127 0
-106 96 0
-107 130 0
-107 96 0
-108 133 0
-108 96 0
-109 136 0
-109 96 0
-240 253 0
-240 -180 0
-240 234 0
-241 256 0
-241 -183 0
-241 234 0
-242 259 0
-242 -186 0
-242 234 0
-243 262 0
-243 -189 0
-243 234 0
-244 265 0
-244 -192 0
-244 234 0
-245 268 0
-245 -195 0
-245 234 0
-246 271 0
-246 -198 0
-246 234 0
-247 274 0
-247 -201 0
-247 234 0
-378 391 0
-378 -318 0
-378 372 0
-379 394 0
-379 -321 0
-379 372 0
-380 397 0
-380 -324 0
-380 372 0
-381 400 0
-381 -327 0
-381 372 0
-382 403 0
-382 -330 0
-382 372 0
-383 406 0
-383 -333 0
-383 372 0
-384 409 0
-384 -336 0
-384 372 0
-385 412 0
-385 -339 0
-385 372 0
-516 529 0
-516 -456 0
-516 510 0
-517 532 0
-517 -459 0
-517 510 0
-518 535 0
-518 -462 0
-518 510 0
-519 538 0
-519 -465 0
-519 510 0
-520 541 0
-520 -468 0
-520 510 0
-521 544 0
-521 -471 0
-521 510 0
-522 547 0
-522 -474 0
-522 510 0
-523 550 0
-523 -477 0
-523 510 0
-96 97 -98 -99 -100 102 0
-96 -97 98 -99 -100 103 0
-96 97 98 -99 -100 104 0
-96 -97 -98 99 -100 105 0
-96 97 -98 99 -100 106 0
-96 -97 98 99 -100 107 0
-96 97 98 99 -100 108 0
-96 -97 -98 -99 100 109 0
-234 180 235 -236 -237 -238 240 0
-234 183 -235 236 -237 -238 241 0
-234 186 235 236 -237 -238 242 0
-234 189 -235 -236 237 -238 243 0
-234 192 235 -236 237 -238 244 0
-234 195 -235 236 237 -238 245 0
-234 198 235 236 237 -238 246 0
-234 201 -235 -236 -237 238 247 0
-372 318 373 -374 -375 -376 378 0
-372 321 -373 374 -375 -376 379 0
-372 324 373 374 -375 -376 380 0
-372 327 -373 -374 375 -376 381 0
-372 330 373 -374 375 -376 382 0
-372 333 -373 374 375 -376 383 0
-372 336 373 374 375 -376 384 0
-372 339 -373 -374 -375 376 385 0
-510 456 511 -512 -513 -514 516 0
-510 459 -511 512 -513 -514 517 0
-510 462 511 512 -513 -514 518 0
-510 465 -511 -512 513 -514 519 0
-510 468 511 -512 513 -514 520 0
-510 471 -511 512 513 -514 521 0
-510 474 511 512 513 -514 522 0
-510 477 -511 -512 -513 514 523 0
